CMD:
./solvers/bin/cadical --plain --no-reduce -t 1600 ./data/cnfs//oski15a01b33s/oski15a01b33s.52.cnf

c --- [ banner ] -------------------------------------------------------------
c 
c CaDiCaL SAT Solver
c Copyright (c) 2016-2024
c A. Biere, M. Fleury, N. Froleyks, K. Fazekas, F. Pollitt, T. Faller
c JKU Linz, University of Freiburg, TU Wien
c 
c Version 2.1.3 5296d3d2a9bf48c154ab2acb5e44625776d821bf
c g++ (Gentoo 12.3.1_p20230526 p2) 12.3.1 20230526 -Wall -Wextra -O3 -DNDEBUG
c Sat Aug 9 07:26:21 PDT 2025 Linux cedar2.int.cedar.computecanada.ca 5.14.0-362.24.2.el9_3.x86_64 x86_64
c 
c --- [ limit ] --------------------------------------------------------------
c 
c setting time limit to 1600 seconds real time (due to '-t 1600')
c 
c --- [ parsing input ] ------------------------------------------------------
c 
c reading DIMACS file from './data/cnfs//oski15a01b33s/oski15a01b33s.52.cnf'
c opening file to read './data/cnfs//oski15a01b33s/oski15a01b33s.52.cnf'
c found 'p cnf 17070714 48759533' header
c parsed 48759533 clauses in 8.42 seconds process time
c 
c --- [ options ] ------------------------------------------------------------
c 
c   --compact=false                (different from default 'true')
c   --decompose=false              (different from default 'true')
c   --deduplicate=false            (different from default 'true')
c   --elim=false                   (different from default 'true')
c   --probe=false                  (different from default 'true')
c   --reduce=false                 (different from default 'true')
c   --subsume=false                (different from default 'true')
c   --ternary=false                (different from default 'true')
c   --transred=false               (different from default 'true')
c   --vivify=false                 (different from default 'true')
c 
c --- [ solving ] ------------------------------------------------------------
c 
c time measured in process time since initialization
c 
c  seconds    reductions  redundant   irredundant
c          MB     restarts       trail          variables
c            level   conflicts       glue              remaining
c 
c *  8.42 7324  0 0   0    0    0  0% 0 46285056 13726129 80%
c {  8.64 7329  0 0   0    0    0  0% 0 46285056 13726129 80%
c i  9.05 7330 123 0   0   37   36 20% 1 46285056 13726125 80%
c i  9.05 7330 120 0   0   38   36 20% 1 46285056 13726122 80%
c i  9.08 7330 87 0   0   56   36 20% 1 46285056 13720496 80%
c i  9.12 7330 83 0   0   61   40 20% 1 46285056 13680034 80%
c i  9.12 7330 81 0   0   63   40 20% 1 46285056 13680032 80%
c i  9.12 7330 81 0   0   64   40 20% 1 46285056 13680024 80%
c i  9.12 7330 79 0   0   66   41 20% 1 46285056 13680022 80%
c }  9.13 7330 79 0   0   68   41 20% 1 46285056 13680002 80%
c 0  9.13 7330 79 0   0   68   41 20% 1 46285056 13680002 80%
c 
c --- [ result ] -------------------------------------------------------------
c 
s UNSATISFIABLE
c 
c --- [ run-time profiling ] -------------------------------------------------
c 
c process time taken by individual solving procedures
c (percentage relative to process time for solving)
c 
c         8.42 1188.73% parse
c         0.71   99.98% search
c         0.48   68.30% unstable
c         0.22   31.67% lucky
c         0.00    0.00% simplify
c   =================================
c         0.71    7.76% solve
c 
c last line shows process time for solving
c (percentage relative to total process time)
c 
c --- [ statistics ] ---------------------------------------------------------
c 
c chronological:                60        88.24 %  of conflicts
c conflicts:                    68        96.04    per second
c decisions:                   886      1251.32    per second
c fixed:                   3390712        19.86 %  of all variables
c learned:                      67        98.53 %  per conflict
c learned_lits:                216       100.00 %  learned literals
c minimized:                     0         0.00 %  learned literals
c shrunken:                     99        45.83 %  learned literals
c minishrunken:                  0         0.00 %  learned literals
c otfs:                          0         0.00 %  of conflict
c propagations:            4796272         6.77 M  per second
c 
c seconds are measured in process time for solving
c 
c --- [ resources ] ----------------------------------------------------------
c 
c total process time since initialization:         9.13    seconds
c total real time since initialization:            9.21    seconds
c maximum resident set size of process:         7328.23    MB
c 
c --- [ shutting down ] ------------------------------------------------------
c 
c exit 20
